100
128
52
13
50
6
33
22
1
45
4
41
35
5
36
55
36
62
46
3
30
24
56
51
34
34
36
46
63
7
24
6
33
62
22
28
59
41
1
2
24
46
18
58
5
43
52
24
42
46
5
47
21
20
61
22
62
57
3
38
29
35
22
6
25
39
11
48
27
37
42
36
20
35
38
15
2
1
5
54
63
48
39
10
52
2
11
44
4
19
48
56
47
60
24
44
21
40
32
19
36
48